solution status: optimal solution found
objective value:                     210413.862428716
d11(0,0)                                            1 	(obj:0)
d11(1,1)                                            1 	(obj:0)
d11(1,2)                                            1 	(obj:0)
d11(2,5)                            0.999999999999985 	(obj:0)
d11(3,7)                                            1 	(obj:0)
d11(3,8)                                            1 	(obj:0)
d11(3,9)                                            1 	(obj:0)
d11(3,11)                                           1 	(obj:0)
d11(3,12)                                           1 	(obj:0)
d11(3,13)                                           1 	(obj:0)
d11(4,15)                                           1 	(obj:0)
d11(4,17)                                           1 	(obj:0)
d11(4,19)                                           1 	(obj:0)
d11(4,23)                                           1 	(obj:0)
d11(4,25)                            1.00000000000005 	(obj:0)
d11(4,27)                                           1 	(obj:0)
d11(4,29)                                           1 	(obj:0)
d11(5,31)                                           1 	(obj:0)
d11(5,33)                                           1 	(obj:0)
d11(5,35)                                           1 	(obj:0)
d11(5,37)                                           1 	(obj:0)
d11(5,41)                                           1 	(obj:0)
d11(5,43)                                           1 	(obj:0)
d11(5,45)                                           1 	(obj:0)
d11(5,47)                                           1 	(obj:0)
d11(5,49)                                           1 	(obj:0)
d11(5,53)                                           1 	(obj:0)
d11(5,57)                                           1 	(obj:0)
d11(5,59)                                           1 	(obj:0)
d11(5,61)                                           1 	(obj:0)
d12(2,4)                                            1 	(obj:0)
d12(2,6)                                            1 	(obj:0)
d12(4,16)                                           1 	(obj:0)
d12(4,18)                                           1 	(obj:0)
d12(4,20)                                           1 	(obj:0)
d12(4,22)                                           1 	(obj:0)
d12(4,24)                                           1 	(obj:0)
d12(4,26)                                           1 	(obj:0)
d12(4,28)                                           1 	(obj:0)
d12(4,30)                                           1 	(obj:0)
d12(5,32)                                           1 	(obj:0)
d12(5,34)                                           1 	(obj:0)
d12(5,36)                                           1 	(obj:0)
d12(5,38)                                           1 	(obj:0)
d12(5,40)                                           1 	(obj:0)
d12(5,42)                                           1 	(obj:0)
d12(5,44)                                           1 	(obj:0)
d12(5,46)                                           1 	(obj:0)
d12(5,48)                                           1 	(obj:0)
d12(5,50)                                           1 	(obj:0)
d12(5,52)                                           1 	(obj:0)
d12(5,54)                                           1 	(obj:0)
d12(5,56)                                           1 	(obj:0)
d12(5,58)                                           1 	(obj:0)
d12(5,60)                                           1 	(obj:0)
d12(5,62)                                           1 	(obj:0)
d21(3,7)                                            1 	(obj:0)
d21(4,15)                                           1 	(obj:0)
d21(4,16)                                           1 	(obj:0)
d21(4,17)                                           1 	(obj:0)
d21(4,19)                                           1 	(obj:0)
d21(4,23)                                           1 	(obj:0)
d21(5,31)                                           1 	(obj:0)
d21(5,32)                                           1 	(obj:0)
d21(5,33)                                           1 	(obj:0)
d21(5,34)                                           1 	(obj:0)
d21(5,35)                                           1 	(obj:0)
d21(5,36)                                           1 	(obj:0)
d21(5,37)                                           1 	(obj:0)
d21(5,39)                                           1 	(obj:0)
d21(5,40)                                           1 	(obj:0)
d21(5,41)                                           1 	(obj:0)
d21(5,43)                                           1 	(obj:0)
d21(5,47)                                           1 	(obj:0)
d21(5,48)                                           1 	(obj:0)
d21(5,49)                                           1 	(obj:0)
d21(5,55)                                           1 	(obj:0)
y2(5,40)                             1385.48851144895 	(obj:0)
y2(5,42)                             1385.48851144895 	(obj:0)
y2(5,44)                             1385.48851144895 	(obj:0)
y2(5,46)                             1385.48851144895 	(obj:0)
y2(5,48)                             1385.48851144895 	(obj:0)
y2(5,50)                             1385.48851144895 	(obj:0)
y2(5,52)                             1385.48851144895 	(obj:0)
y2(5,54)                             1385.48851144895 	(obj:0)
y2(5,56)                             1385.48851144895 	(obj:0)
y2(5,58)                             1385.48851144895 	(obj:0)
y2(5,60)                             1385.48851144895 	(obj:0)
y2(5,62)                             1385.48851144895 	(obj:0)
STE(1,1)                             4893.75010106496 	(obj:0)
STE(0,0)                                        12600 	(obj:0)
STE(1,2)                             6551.99999995377 	(obj:0)
STE(2,3)                             3885.75010106496 	(obj:0)
STE(2,4)                             5201.96418694146 	(obj:0)
STE(2,5)                             5543.99999995377 	(obj:0)
STE(2,6)                             6860.21408583028 	(obj:0)
STE(3,7)                             1219.50020217611 	(obj:0)
STE(3,8)                             2877.75010106493 	(obj:0)
STE(3,9)                             2535.71428805262 	(obj:0)
STE(3,10)                            4193.96418694146 	(obj:0)
STE(3,11)                            2877.75010106493 	(obj:0)
STE(3,12)                            4535.99999995374 	(obj:0)
STE(3,13)                            4193.96418694143 	(obj:0)
STE(3,14)                            5852.21408583028 	(obj:0)
STE(4,15)                            211.500202176049 	(obj:0)
STE(4,16)                            1527.71428805262 	(obj:0)
STE(4,17)                            1869.75010106497 	(obj:0)
STE(4,18)                            3185.96418694143 	(obj:0)
STE(4,19)                            1527.71428805255 	(obj:0)
STE(4,20)                            2843.92837392912 	(obj:0)
STE(4,21)                            3185.96418694146 	(obj:0)
STE(4,22)                            4502.17827281797 	(obj:0)
STE(4,23)                            1869.75010106497 	(obj:0)
STE(4,24)                            3185.96418694143 	(obj:0)
STE(4,25)                                        3528 	(obj:0)
STE(4,26)                            4844.21408583025 	(obj:0)
STE(4,27)                            3185.96418694137 	(obj:0)
STE(4,28)                            4502.17827281794 	(obj:0)
STE(4,29)                            4844.21408583032 	(obj:0)
STE(4,30)                            6160.42817170678 	(obj:0)
STE(5,31)                           -796.499797823951 	(obj:0)
STE(5,32)                            519.714288052554 	(obj:0)
STE(5,33)                            519.714288052616 	(obj:0)
STE(5,34)                            1835.92837392912 	(obj:0)
STE(5,35)                             861.75010106497 	(obj:0)
STE(5,36)                            2177.96418694148 	(obj:0)
STE(5,37)                            2177.96418694148 	(obj:0)
STE(5,38)                            3494.17827281794 	(obj:0)
STE(5,39)                            519.714288052554 	(obj:0)
STE(5,40)                            1835.92837392906 	(obj:0)
STE(5,41)                            1835.92837392912 	(obj:0)
STE(5,42)                            3152.14245980563 	(obj:0)
STE(5,43)                            2177.96418694146 	(obj:0)
STE(5,44)                            3494.17827281797 	(obj:0)
STE(5,45)                            3494.17827281797 	(obj:0)
STE(5,46)                            4810.39235869447 	(obj:0)
STE(5,47)                             861.75010106497 	(obj:0)
STE(5,48)                            2177.96418694148 	(obj:0)
STE(5,49)                            2177.96418694143 	(obj:0)
STE(5,50)                            3494.17827281794 	(obj:0)
STE(5,51)                                        2520 	(obj:0)
STE(5,52)                            3836.21408587651 	(obj:0)
STE(5,53)                            3836.21408583025 	(obj:0)
STE(5,54)                            5152.42817170676 	(obj:0)
STE(5,55)                            2177.96418694137 	(obj:0)
STE(5,56)                            3494.17827281788 	(obj:0)
STE(5,57)                            3494.17827281794 	(obj:0)
STE(5,58)                            4810.39235869444 	(obj:0)
STE(5,59)                            3836.21408583032 	(obj:0)
STE(5,60)                            5152.42817170683 	(obj:0)
STE(5,61)                            5152.42817170678 	(obj:0)
STE(5,62)                            6468.64225758329 	(obj:0)
AVE(1)                                   3216.9117036 	(obj:0)
WB(2)                                692.744255724489 	(obj:0)
AVE(2)                                   3366.1541945 	(obj:0)
AVE(3)                                   3515.3966854 	(obj:0)
WB(4)                                3515.39406545826 	(obj:0)
AVE(4)                               3515.39406545826 	(obj:0)
WB(5)                                3167.15385943327 	(obj:0)
AVE(5)                               3167.15385943327 	(obj:0)
WG(1)                                    3216.9117036 	(obj:10)
WG(2)                                2673.40993877551 	(obj:10)
WG(3)                                    3515.3966854 	(obj:10)
BG(1)                                5607.95222399345 	(obj:10)
BG(3)                                680.895813579591 	(obj:10)
BG(4)                                2673.40993877551 	(obj:10)
BG(5)                                2673.40993877551 	(obj:10)
y1(1,1)                              6028.42490904154 	(obj:0)
y1(1,2)                               4536.0000000416 	(obj:0)
y1(3,7)                              1492.42490899996 	(obj:0)
y1(3,9)                              1492.42490899996 	(obj:0)
y1(3,11)                             1492.42490899996 	(obj:0)
y1(3,13)                             1492.42490899996 	(obj:0)
y1(4,25)                         -4.16295370087028e-008 	(obj:0)
y2(2,4)                              1385.48851144895 	(obj:0)
y2(2,6)                              1385.48851144895 	(obj:0)
y2(4,16)                             1385.48851144895 	(obj:0)
y2(4,18)                             1385.48851144895 	(obj:0)
y2(4,20)                             1385.48851144895 	(obj:0)
y2(4,22)                             1385.48851144895 	(obj:0)
y2(4,24)                             1385.48851144895 	(obj:0)
y2(4,26)                             1385.48851144895 	(obj:0)
y2(4,28)                             1385.48851144895 	(obj:0)
y2(4,30)                             1385.48851144895 	(obj:0)
y2(5,32)                             1385.48851144895 	(obj:0)
y2(5,34)                             1385.48851144895 	(obj:0)
y2(5,36)                             1385.48851144895 	(obj:0)
y2(5,38)                             1385.48851144895 	(obj:0)
